WARNING: for repeatability, setting FPU to use double precision
============================[ Problem Statistics ]=============================
|                                                                             |
|  Number of variables:           100                                         |
|  Number of clauses:             449                                         |
|  Parse time:                   0.00 s                                       |
|  Eliminated clauses:           0.00 Mb                                      |
|  Simplification time:          0.00 s                                       |
|                                                                             |
============================[ Search Statistics ]==============================
| Conflicts |          ORIGINAL         |          LEARNT          | Progress |
|           |    Vars  Clauses Literals |    Limit  Clauses Lit/Cl |          |
===============================================================================
|       100 |      97      446     1360 |      163      100      7 |  0.010 % |
|       250 |      97      446     1360 |      179      166      6 |  0.010 % |
===============================================================================
restarts              : 3
conflicts             : 340            (84242 /sec)
decisions             : 411            (0.00 % random) (101833 /sec)
propagations          : 8015           (1985877 /sec)
conflict literals     : 2129           (19.54 % deleted)
Memory used           : 13.00 MB
CPU time              : 0.004036 s

SATISFIABLE
